# vtk DataFile Version 2.0
./output/uniaxialExtension_NHC/uniaxialExtension_NHC_0001.vtk
ASCII
DATASET UNSTRUCTURED_GRID

POINTS 62 float
       0.000000e+00       0.000000e+00       0.000000e+00 
       0.000000e+00       0.000000e+00       8.643447e-01 
       0.000000e+00       8.643447e-01       8.643447e-01 
       0.000000e+00       8.643447e-01       0.000000e+00 
       2.959689e+00       0.000000e+00       0.000000e+00 
       2.959689e+00       0.000000e+00       8.643447e-01 
       2.959689e+00       8.643447e-01       8.643447e-01 
       2.959689e+00       8.643447e-01       0.000000e+00 
       0.000000e+00       8.643447e-01       4.321724e-01 
       7.399224e-01       8.643447e-01       8.643447e-01 
       1.479845e+00       8.643447e-01       8.643447e-01 
       2.219767e+00       8.643447e-01       8.643447e-01 
       2.959689e+00       8.643447e-01       4.321724e-01 
       2.219767e+00       8.643447e-01       0.000000e+00 
       1.479845e+00       8.643447e-01       0.000000e+00 
       7.399224e-01       8.643447e-01       0.000000e+00 
       0.000000e+00       0.000000e+00       4.321724e-01 
       7.399224e-01       0.000000e+00       8.643447e-01 
       1.479845e+00       0.000000e+00       8.643447e-01 
       2.219767e+00       0.000000e+00       8.643447e-01 
       2.959689e+00       0.000000e+00       4.321724e-01 
       2.219767e+00       0.000000e+00       0.000000e+00 
       1.479845e+00       0.000000e+00       0.000000e+00 
       7.399224e-01       0.000000e+00       0.000000e+00 
       0.000000e+00       4.321724e-01       0.000000e+00 
       0.000000e+00       4.321724e-01       8.643447e-01 
       2.959689e+00       4.321724e-01       0.000000e+00 
       2.959689e+00       4.321724e-01       8.643447e-01 
       1.849806e+00       8.643447e-01       3.742722e-01 
       1.109884e+00       8.643447e-01       4.900725e-01 
       2.473226e+00       8.643447e-01       5.472675e-01 
       4.864632e-01       8.643447e-01       3.170772e-01 
       2.530673e+00       8.643447e-01       2.497879e-01 
       4.290160e-01       8.643447e-01       6.145568e-01 
       1.849806e+00       4.900725e-01       0.000000e+00 
       1.109884e+00       3.879536e-01       0.000000e+00 
       2.473226e+00       3.170772e-01       0.000000e+00 
       4.853590e-01       5.502465e-01       0.000000e+00 
       4.387876e-01       2.569447e-01       0.000000e+00 
       2.530673e+00       6.145568e-01       0.000000e+00 
       2.959689e+00       6.104434e-01       2.539013e-01 
       2.959689e+00       3.241293e-01       3.241293e-01 
       2.959689e+00       5.564219e-01       5.600233e-01 
       2.959689e+00       2.430969e-01       6.212478e-01 
       1.109884e+00       4.900725e-01       8.643447e-01 
       1.849806e+00       3.879536e-01       8.643447e-01 
       4.864632e-01       3.170772e-01       8.643447e-01 
       2.474330e+00       5.502465e-01       8.643447e-01 
       2.520902e+00       2.569447e-01       8.643447e-01 
       4.290160e-01       6.145568e-01       8.643447e-01 
       0.000000e+00       2.539013e-01       6.104434e-01 
       0.000000e+00       5.402154e-01       5.402154e-01 
       0.000000e+00       3.079228e-01       3.043214e-01 
       0.000000e+00       6.212478e-01       2.430969e-01 
       1.849806e+00       0.000000e+00       3.742722e-01 
       1.109884e+00       0.000000e+00       4.900725e-01 
       2.473226e+00       0.000000e+00       5.472675e-01 
       4.864632e-01       0.000000e+00       3.170772e-01 
       2.530673e+00       0.000000e+00       2.497879e-01 
       4.290160e-01       0.000000e+00       6.145568e-01 
       7.397724e-01       4.261113e-01       4.202574e-01 
       2.224335e+00       4.405212e-01       4.418344e-01 

CELLS 144 720
4 44 60 29 61 
4 34 35 54 61 
4 45 54 55 61 
4 44 29 45 61 
4 29 28 45 61 
4 29 10 45 28 
4 28 35 29 14 
4 29 10 44 45 
4 14 28 35 34 
4 9 49 33 60 
4 13 39 32 61 
4 54 58 36 61 
4 45 18 55 54 
4 22 35 55 54 
4 43 48 42 61 
4 40 39 36 61 
4 18 55 44 45 
4 22 34 35 54 
4 45 28 11 61 
4 44 49 9 60 
4 9 33 29 60 
4 56 19 48 61 
4 34 39 13 61 
4 13 32 28 61 
4 56 54 19 61 
4 34 54 36 61 
4 43 56 48 61 
4 40 30 32 61 
4 35 29 15 60 
4 46 17 59 60 
4 39 40 32 61 
4 40 42 30 61 
4 40 36 41 61 
4 59 57 50 60 
4 11 28 30 61 
4 15 29 31 60 
4 11 47 45 61 
4 15 31 37 60 
4 35 15 29 14 
4 11 45 10 28 
4 54 21 36 58 
4 59 50 46 60 
4 11 30 47 61 
4 53 37 31 60 
4 52 50 57 60 
4 15 37 35 60 
4 43 41 56 61 
4 57 55 23 60 
4 52 37 53 60 
4 23 38 57 60 
4 47 42 48 61 
4 21 36 34 54 
4 45 48 19 61 
4 53 31 51 60 
4 19 54 45 61 
4 46 50 51 60 
4 36 58 41 61 
4 13 28 34 61 
4 44 9 29 60 
4 51 33 49 60 
4 55 59 17 60 
4 56 41 58 61 
4 23 55 35 60 
4 47 30 42 61 
4 51 49 46 60 
4 35 38 23 60 
4 31 33 51 60 
4 38 37 52 60 
4 38 52 57 60 
4 31 3 37 53 
4 42 41 43 61 
4 30 6 47 42 
4 57 16 59 50 
4 40 39 26 36 
4 40 30 12 32 
4 16 57 52 50 
4 42 30 12 40 
4 18 45 19 54 
4 23 35 55 22 
4 52 53 51 60 
4 54 56 58 61 
4 34 36 39 61 
4 40 41 42 61 
4 37 24 52 53 
4 44 46 49 60 
4 36 26 40 41 
4 44 55 18 17 
4 21 34 22 54 
4 51 50 52 60 
4 31 29 33 60 
4 48 45 47 61 
4 57 0 52 38 
4 32 30 28 61 
4 53 31 8 51 
4 43 20 56 41 
4 36 41 58 4 
4 43 56 5 48 
4 46 25 51 50 
4 59 55 57 60 
4 38 35 37 60 
4 59 1 46 50 
4 38 24 52 37 
4 0 16 57 52 
4 30 12 6 42 
4 41 36 26 4 
4 27 47 6 42 
4 49 25 51 46 
4 51 31 8 33 
4 41 20 56 58 
4 31 8 3 53 
4 56 20 43 5 
4 24 37 3 53 
4 25 46 1 50 
4 51 33 2 49 
4 24 52 0 38 
4 37 15 3 31 
4 47 11 6 30 
4 58 41 20 4 
4 33 8 51 2 
4 25 51 2 49 
4 10 9 29 44 
4 14 13 28 34 
4 48 5 43 27 
4 32 12 40 7 
4 39 7 40 26 
4 16 1 59 50 
4 40 32 7 39 
4 5 56 19 48 
4 0 57 23 38 
4 46 1 59 17 
4 13 7 32 39 
4 58 21 36 4 
4 9 2 33 49 
4 61 44 55 45 
4 61 55 44 60 
4 61 35 28 34 
4 61 55 35 54 
4 61 35 55 60 
4 61 29 35 60 
4 61 35 29 28 
4 42 48 27 47 
4 42 27 48 43 
4 17 60 44 55 
4 44 60 17 46 

CELL_TYPES 144
 10
 10
 10
 10
 10
 10
 10
 10
 10
 10
 10
 10
 10
 10
 10
 10
 10
 10
 10
 10
 10
 10
 10
 10
 10
 10
 10
 10
 10
 10
 10
 10
 10
 10
 10
 10
 10
 10
 10
 10
 10
 10
 10
 10
 10
 10
 10
 10
 10
 10
 10
 10
 10
 10
 10
 10
 10
 10
 10
 10
 10
 10
 10
 10
 10
 10
 10
 10
 10
 10
 10
 10
 10
 10
 10
 10
 10
 10
 10
 10
 10
 10
 10
 10
 10
 10
 10
 10
 10
 10
 10
 10
 10
 10
 10
 10
 10
 10
 10
 10
 10
 10
 10
 10
 10
 10
 10
 10
 10
 10
 10
 10
 10
 10
 10
 10
 10
 10
 10
 10
 10
 10
 10
 10
 10
 10
 10
 10
 10
 10
 10
 10
 10
 10
 10
 10
 10
 10
 10
 10
 10
 10
 10
 10

POINT_DATA        62 
VECTORS Displacements float
       0.00000000e+00       0.00000000e+00       0.00000000e+00 
       0.00000000e+00       0.00000000e+00      -1.35655299e-01 
       0.00000000e+00      -1.35655299e-01      -1.35655299e-01 
       0.00000000e+00      -1.35655299e-01       0.00000000e+00 
       9.59689409e-01       0.00000000e+00       0.00000000e+00 
       9.59689409e-01       0.00000000e+00      -1.35655299e-01 
       9.59689409e-01      -1.35655299e-01      -1.35655299e-01 
       9.59689409e-01      -1.35655299e-01       0.00000000e+00 
       0.00000000e+00      -1.35655299e-01      -6.78276495e-02 
       2.39922352e-01      -1.35655299e-01      -1.35655299e-01 
       4.79844704e-01      -1.35655299e-01      -1.35655299e-01 
       7.19767057e-01      -1.35655299e-01      -1.35655299e-01 
       9.59689409e-01      -1.35655299e-01      -6.78276495e-02 
       7.19767057e-01      -1.35655299e-01       0.00000000e+00 
       4.79844704e-01      -1.35655299e-01       0.00000000e+00 
       2.39922352e-01      -1.35655299e-01       0.00000000e+00 
       0.00000000e+00       0.00000000e+00      -6.78276495e-02 
       2.39922352e-01       0.00000000e+00      -1.35655299e-01 
       4.79844704e-01       0.00000000e+00      -1.35655299e-01 
       7.19767057e-01       0.00000000e+00      -1.35655299e-01 
       9.59689409e-01       0.00000000e+00      -6.78276495e-02 
       7.19767057e-01       0.00000000e+00       0.00000000e+00 
       4.79844704e-01       0.00000000e+00       0.00000000e+00 
       2.39922352e-01       0.00000000e+00       0.00000000e+00 
       0.00000000e+00      -6.78276495e-02       0.00000000e+00 
       0.00000000e+00      -6.78276495e-02      -1.35655299e-01 
       9.59689409e-01      -6.78276495e-02       0.00000000e+00 
       9.59689409e-01      -6.78276495e-02      -1.35655299e-01 
       5.99805880e-01      -1.35655299e-01      -5.87404676e-02 
       3.59883528e-01      -1.35655299e-01      -7.69148315e-02 
       8.01952059e-01      -1.35655299e-01      -8.58913543e-02 
       1.57737350e-01      -1.35655299e-01      -4.97639448e-02 
       8.20579518e-01      -1.35655299e-01      -3.92031649e-02 
       1.39109891e-01      -1.35655299e-01      -9.64521341e-02 
       5.99805880e-01      -7.69148315e-02       0.00000000e+00 
       3.59883528e-01      -6.08876965e-02       0.00000000e+00 
       8.01952059e-01      -4.97639448e-02       0.00000000e+00 
       1.57379328e-01      -8.63588943e-02       0.00000000e+00 
       1.42278379e-01      -4.03264073e-02       0.00000000e+00 
       8.20579518e-01      -9.64521341e-02       0.00000000e+00 
       9.59689409e-01      -9.58065549e-02      -3.98487441e-02 
       9.59689409e-01      -5.08707371e-02      -5.08707371e-02 
       9.59689409e-01      -8.73280987e-02      -8.78933292e-02 
       9.59689409e-01      -3.81530528e-02      -9.75022462e-02 
       3.59883528e-01      -7.69148315e-02      -1.35655299e-01 
       5.99805880e-01      -6.08876965e-02      -1.35655299e-01 
       1.57737350e-01      -4.97639448e-02      -1.35655299e-01 
       8.02310081e-01      -8.63588943e-02      -1.35655299e-01 
       8.17411029e-01      -4.03264073e-02      -1.35655299e-01 
       1.39109891e-01      -9.64521341e-02      -1.35655299e-01 
       0.00000000e+00      -3.98487441e-02      -9.58065549e-02 
       0.00000000e+00      -8.47845619e-02      -8.47845619e-02 
       0.00000000e+00      -4.83272003e-02      -4.77619699e-02 
       0.00000000e+00      -9.75022462e-02      -3.81530528e-02 
       5.99805880e-01       0.00000000e+00      -5.87404676e-02 
       3.59883528e-01       0.00000000e+00      -7.69148315e-02 
       8.01952059e-01       0.00000000e+00      -8.58913543e-02 
       1.57737350e-01       0.00000000e+00      -4.97639448e-02 
       8.20579518e-01       0.00000000e+00      -3.92031649e-02 
       1.39109891e-01       0.00000000e+00      -9.64521341e-02 
       2.39873715e-01      -6.68764001e-02      -6.59576403e-02 
       7.21248300e-01      -6.91379676e-02      -6.93440721e-02 

CELL_DATA       144 
SCALARS Von_Mises float 1
LOOKUP_TABLE default
       2.53404968e-01 
       2.53404968e-01 
       2.53404968e-01 
       2.53404968e-01 
       2.53404968e-01 
       2.53404968e-01 
       2.53404968e-01 
       2.53404968e-01 
       2.53404968e-01 
       2.53404968e-01 
       2.53404968e-01 
       2.53404968e-01 
       2.53404968e-01 
       2.53404968e-01 
       2.53404968e-01 
       2.53404968e-01 
       2.53404968e-01 
       2.53404968e-01 
       2.53404968e-01 
       2.53404968e-01 
       2.53404968e-01 
       2.53404968e-01 
       2.53404968e-01 
       2.53404968e-01 
       2.53404968e-01 
       2.53404968e-01 
       2.53404968e-01 
       2.53404968e-01 
       2.53404968e-01 
       2.53404968e-01 
       2.53404968e-01 
       2.53404968e-01 
       2.53404968e-01 
       2.53404968e-01 
       2.53404968e-01 
       2.53404968e-01 
       2.53404968e-01 
       2.53404968e-01 
       2.53404968e-01 
       2.53404968e-01 
       2.53404968e-01 
       2.53404968e-01 
       2.53404968e-01 
       2.53404968e-01 
       2.53404968e-01 
       2.53404968e-01 
       2.53404968e-01 
       2.53404968e-01 
       2.53404968e-01 
       2.53404968e-01 
       2.53404968e-01 
       2.53404968e-01 
       2.53404968e-01 
       2.53404968e-01 
       2.53404968e-01 
       2.53404968e-01 
       2.53404968e-01 
       2.53404968e-01 
       2.53404968e-01 
       2.53404968e-01 
       2.53404968e-01 
       2.53404968e-01 
       2.53404968e-01 
       2.53404968e-01 
       2.53404968e-01 
       2.53404968e-01 
       2.53404968e-01 
       2.53404968e-01 
       2.53404968e-01 
       2.53404968e-01 
       2.53404968e-01 
       2.53404968e-01 
       2.53404968e-01 
       2.53404968e-01 
       2.53404968e-01 
       2.53404968e-01 
       2.53404968e-01 
       2.53404968e-01 
       2.53404968e-01 
       2.53404968e-01 
       2.53404968e-01 
       2.53404968e-01 
       2.53404968e-01 
       2.53404968e-01 
       2.53404968e-01 
       2.53404968e-01 
       2.53404968e-01 
       2.53404968e-01 
       2.53404968e-01 
       2.53404968e-01 
       2.53404968e-01 
       2.53404968e-01 
       2.53404968e-01 
       2.53404968e-01 
       2.53404968e-01 
       2.53404968e-01 
       2.53404968e-01 
       2.53404968e-01 
       2.53404968e-01 
       2.53404968e-01 
       2.53404968e-01 
       2.53404968e-01 
       2.53404968e-01 
       2.53404968e-01 
       2.53404968e-01 
       2.53404968e-01 
       2.53404968e-01 
       2.53404968e-01 
       2.53404968e-01 
       2.53404968e-01 
       2.53404968e-01 
       2.53404968e-01 
       2.53404968e-01 
       2.53404968e-01 
       2.53404968e-01 
       2.53404968e-01 
       2.53404968e-01 
       2.53404968e-01 
       2.53404968e-01 
       2.53404968e-01 
       2.53404968e-01 
       2.53404968e-01 
       2.53404968e-01 
       2.53404968e-01 
       2.53404968e-01 
       2.53404968e-01 
       2.53404968e-01 
       2.53404968e-01 
       2.53404968e-01 
       2.53404968e-01 
       2.53404968e-01 
       2.53404968e-01 
       2.53404968e-01 
       2.53404968e-01 
       2.53404968e-01 
       2.53404968e-01 
       2.53404968e-01 
       2.53404968e-01 
       2.53404968e-01 
       2.53404968e-01 
       2.53404968e-01 
       2.53404968e-01 
       2.53404968e-01 
       2.53404968e-01 

SCALARS Sxx float 1
LOOKUP_TABLE default
       2.53404968e-01 
       2.53404968e-01 
       2.53404968e-01 
       2.53404968e-01 
       2.53404968e-01 
       2.53404968e-01 
       2.53404968e-01 
       2.53404968e-01 
       2.53404968e-01 
       2.53404968e-01 
       2.53404968e-01 
       2.53404968e-01 
       2.53404968e-01 
       2.53404968e-01 
       2.53404968e-01 
       2.53404968e-01 
       2.53404968e-01 
       2.53404968e-01 
       2.53404968e-01 
       2.53404968e-01 
       2.53404968e-01 
       2.53404968e-01 
       2.53404968e-01 
       2.53404968e-01 
       2.53404968e-01 
       2.53404968e-01 
       2.53404968e-01 
       2.53404968e-01 
       2.53404968e-01 
       2.53404968e-01 
       2.53404968e-01 
       2.53404968e-01 
       2.53404968e-01 
       2.53404968e-01 
       2.53404968e-01 
       2.53404968e-01 
       2.53404968e-01 
       2.53404968e-01 
       2.53404968e-01 
       2.53404968e-01 
       2.53404968e-01 
       2.53404968e-01 
       2.53404968e-01 
       2.53404968e-01 
       2.53404968e-01 
       2.53404968e-01 
       2.53404968e-01 
       2.53404968e-01 
       2.53404968e-01 
       2.53404968e-01 
       2.53404968e-01 
       2.53404968e-01 
       2.53404968e-01 
       2.53404968e-01 
       2.53404968e-01 
       2.53404968e-01 
       2.53404968e-01 
       2.53404968e-01 
       2.53404968e-01 
       2.53404968e-01 
       2.53404968e-01 
       2.53404968e-01 
       2.53404968e-01 
       2.53404968e-01 
       2.53404968e-01 
       2.53404968e-01 
       2.53404968e-01 
       2.53404968e-01 
       2.53404968e-01 
       2.53404968e-01 
       2.53404968e-01 
       2.53404968e-01 
       2.53404968e-01 
       2.53404968e-01 
       2.53404968e-01 
       2.53404968e-01 
       2.53404968e-01 
       2.53404968e-01 
       2.53404968e-01 
       2.53404968e-01 
       2.53404968e-01 
       2.53404968e-01 
       2.53404968e-01 
       2.53404968e-01 
       2.53404968e-01 
       2.53404968e-01 
       2.53404968e-01 
       2.53404968e-01 
       2.53404968e-01 
       2.53404968e-01 
       2.53404968e-01 
       2.53404968e-01 
       2.53404968e-01 
       2.53404968e-01 
       2.53404968e-01 
       2.53404968e-01 
       2.53404968e-01 
       2.53404968e-01 
       2.53404968e-01 
       2.53404968e-01 
       2.53404968e-01 
       2.53404968e-01 
       2.53404968e-01 
       2.53404968e-01 
       2.53404968e-01 
       2.53404968e-01 
       2.53404968e-01 
       2.53404968e-01 
       2.53404968e-01 
       2.53404968e-01 
       2.53404968e-01 
       2.53404968e-01 
       2.53404968e-01 
       2.53404968e-01 
       2.53404968e-01 
       2.53404968e-01 
       2.53404968e-01 
       2.53404968e-01 
       2.53404968e-01 
       2.53404968e-01 
       2.53404968e-01 
       2.53404968e-01 
       2.53404968e-01 
       2.53404968e-01 
       2.53404968e-01 
       2.53404968e-01 
       2.53404968e-01 
       2.53404968e-01 
       2.53404968e-01 
       2.53404968e-01 
       2.53404968e-01 
       2.53404968e-01 
       2.53404968e-01 
       2.53404968e-01 
       2.53404968e-01 
       2.53404968e-01 
       2.53404968e-01 
       2.53404968e-01 
       2.53404968e-01 
       2.53404968e-01 
       2.53404968e-01 
       2.53404968e-01 
       2.53404968e-01 
       2.53404968e-01 

