# vtk DataFile Version 2.0
./output/uniaxialExtension_NHC/uniaxialExtension_NHC_0007.vtk
ASCII
DATASET UNSTRUCTURED_GRID

POINTS 62 float
       0.000000e+00       0.000000e+00       0.000000e+00 
       0.000000e+00       0.000000e+00       4.339377e-01 
       0.000000e+00       4.339377e-01       4.339377e-01 
       0.000000e+00       4.339377e-01       0.000000e+00 
       1.370496e+01       0.000000e+00       0.000000e+00 
       1.370496e+01       0.000000e+00       4.339377e-01 
       1.370496e+01       4.339377e-01       4.339377e-01 
       1.370496e+01       4.339377e-01       0.000000e+00 
       0.000000e+00       4.339377e-01       2.169689e-01 
       3.426240e+00       4.339377e-01       4.339377e-01 
       6.852479e+00       4.339377e-01       4.339377e-01 
       1.027872e+01       4.339377e-01       4.339377e-01 
       1.370496e+01       4.339377e-01       2.169689e-01 
       1.027872e+01       4.339377e-01       0.000000e+00 
       6.852479e+00       4.339377e-01       0.000000e+00 
       3.426240e+00       4.339377e-01       0.000000e+00 
       0.000000e+00       0.000000e+00       2.169689e-01 
       3.426240e+00       0.000000e+00       4.339377e-01 
       6.852479e+00       0.000000e+00       4.339377e-01 
       1.027872e+01       0.000000e+00       4.339377e-01 
       1.370496e+01       0.000000e+00       2.169689e-01 
       1.027872e+01       0.000000e+00       0.000000e+00 
       6.852479e+00       0.000000e+00       0.000000e+00 
       3.426240e+00       0.000000e+00       0.000000e+00 
       0.000000e+00       2.169689e-01       0.000000e+00 
       0.000000e+00       2.169689e-01       4.339377e-01 
       1.370496e+01       2.169689e-01       0.000000e+00 
       1.370496e+01       2.169689e-01       4.339377e-01 
       8.565599e+00       4.339377e-01       1.879006e-01 
       5.139360e+00       4.339377e-01       2.460372e-01 
       1.145237e+01       4.339377e-01       2.747515e-01 
       2.252587e+00       4.339377e-01       1.591862e-01 
       1.171838e+01       4.339377e-01       1.254041e-01 
       1.986575e+00       4.339377e-01       3.085336e-01 
       8.565599e+00       2.460372e-01       0.000000e+00 
       5.139360e+00       1.947692e-01       0.000000e+00 
       1.145237e+01       1.591862e-01       0.000000e+00 
       2.247474e+00       2.762471e-01       0.000000e+00 
       2.031823e+00       1.289972e-01       0.000000e+00 
       1.171838e+01       3.085336e-01       0.000000e+00 
       1.370496e+01       3.064685e-01       1.274692e-01 
       1.370496e+01       1.627267e-01       1.627267e-01 
       1.370496e+01       2.793474e-01       2.811555e-01 
       1.370496e+01       1.220450e-01       3.118927e-01 
       5.139360e+00       2.460372e-01       4.339377e-01 
       8.565599e+00       1.947692e-01       4.339377e-01 
       2.252587e+00       1.591862e-01       4.339377e-01 
       1.145748e+01       2.762471e-01       4.339377e-01 
       1.167314e+01       1.289972e-01       4.339377e-01 
       1.986575e+00       3.085336e-01       4.339377e-01 
       0.000000e+00       1.274692e-01       3.064685e-01 
       0.000000e+00       2.712111e-01       2.712111e-01 
       0.000000e+00       1.545903e-01       1.527822e-01 
       0.000000e+00       3.118927e-01       1.220450e-01 
       8.565599e+00       0.000000e+00       1.879006e-01 
       5.139360e+00       0.000000e+00       2.460372e-01 
       1.145237e+01       0.000000e+00       2.747515e-01 
       2.252587e+00       0.000000e+00       1.591862e-01 
       1.171838e+01       0.000000e+00       1.254041e-01 
       1.986575e+00       0.000000e+00       3.085336e-01 
       3.425545e+00       2.139260e-01       2.109870e-01 
       1.029987e+01       2.211603e-01       2.218196e-01 

CELLS 144 720
4 44 60 29 61 
4 34 35 54 61 
4 45 54 55 61 
4 44 29 45 61 
4 29 28 45 61 
4 29 10 45 28 
4 28 35 29 14 
4 29 10 44 45 
4 14 28 35 34 
4 9 49 33 60 
4 13 39 32 61 
4 54 58 36 61 
4 45 18 55 54 
4 22 35 55 54 
4 43 48 42 61 
4 40 39 36 61 
4 18 55 44 45 
4 22 34 35 54 
4 45 28 11 61 
4 44 49 9 60 
4 9 33 29 60 
4 56 19 48 61 
4 34 39 13 61 
4 13 32 28 61 
4 56 54 19 61 
4 34 54 36 61 
4 43 56 48 61 
4 40 30 32 61 
4 35 29 15 60 
4 46 17 59 60 
4 39 40 32 61 
4 40 42 30 61 
4 40 36 41 61 
4 59 57 50 60 
4 11 28 30 61 
4 15 29 31 60 
4 11 47 45 61 
4 15 31 37 60 
4 35 15 29 14 
4 11 45 10 28 
4 54 21 36 58 
4 59 50 46 60 
4 11 30 47 61 
4 53 37 31 60 
4 52 50 57 60 
4 15 37 35 60 
4 43 41 56 61 
4 57 55 23 60 
4 52 37 53 60 
4 23 38 57 60 
4 47 42 48 61 
4 21 36 34 54 
4 45 48 19 61 
4 53 31 51 60 
4 19 54 45 61 
4 46 50 51 60 
4 36 58 41 61 
4 13 28 34 61 
4 44 9 29 60 
4 51 33 49 60 
4 55 59 17 60 
4 56 41 58 61 
4 23 55 35 60 
4 47 30 42 61 
4 51 49 46 60 
4 35 38 23 60 
4 31 33 51 60 
4 38 37 52 60 
4 38 52 57 60 
4 31 3 37 53 
4 42 41 43 61 
4 30 6 47 42 
4 57 16 59 50 
4 40 39 26 36 
4 40 30 12 32 
4 16 57 52 50 
4 42 30 12 40 
4 18 45 19 54 
4 23 35 55 22 
4 52 53 51 60 
4 54 56 58 61 
4 34 36 39 61 
4 40 41 42 61 
4 37 24 52 53 
4 44 46 49 60 
4 36 26 40 41 
4 44 55 18 17 
4 21 34 22 54 
4 51 50 52 60 
4 31 29 33 60 
4 48 45 47 61 
4 57 0 52 38 
4 32 30 28 61 
4 53 31 8 51 
4 43 20 56 41 
4 36 41 58 4 
4 43 56 5 48 
4 46 25 51 50 
4 59 55 57 60 
4 38 35 37 60 
4 59 1 46 50 
4 38 24 52 37 
4 0 16 57 52 
4 30 12 6 42 
4 41 36 26 4 
4 27 47 6 42 
4 49 25 51 46 
4 51 31 8 33 
4 41 20 56 58 
4 31 8 3 53 
4 56 20 43 5 
4 24 37 3 53 
4 25 46 1 50 
4 51 33 2 49 
4 24 52 0 38 
4 37 15 3 31 
4 47 11 6 30 
4 58 41 20 4 
4 33 8 51 2 
4 25 51 2 49 
4 10 9 29 44 
4 14 13 28 34 
4 48 5 43 27 
4 32 12 40 7 
4 39 7 40 26 
4 16 1 59 50 
4 40 32 7 39 
4 5 56 19 48 
4 0 57 23 38 
4 46 1 59 17 
4 13 7 32 39 
4 58 21 36 4 
4 9 2 33 49 
4 61 44 55 45 
4 61 55 44 60 
4 61 35 28 34 
4 61 55 35 54 
4 61 35 55 60 
4 61 29 35 60 
4 61 35 29 28 
4 42 48 27 47 
4 42 27 48 43 
4 17 60 44 55 
4 44 60 17 46 

CELL_TYPES 144
 10
 10
 10
 10
 10
 10
 10
 10
 10
 10
 10
 10
 10
 10
 10
 10
 10
 10
 10
 10
 10
 10
 10
 10
 10
 10
 10
 10
 10
 10
 10
 10
 10
 10
 10
 10
 10
 10
 10
 10
 10
 10
 10
 10
 10
 10
 10
 10
 10
 10
 10
 10
 10
 10
 10
 10
 10
 10
 10
 10
 10
 10
 10
 10
 10
 10
 10
 10
 10
 10
 10
 10
 10
 10
 10
 10
 10
 10
 10
 10
 10
 10
 10
 10
 10
 10
 10
 10
 10
 10
 10
 10
 10
 10
 10
 10
 10
 10
 10
 10
 10
 10
 10
 10
 10
 10
 10
 10
 10
 10
 10
 10
 10
 10
 10
 10
 10
 10
 10
 10
 10
 10
 10
 10
 10
 10
 10
 10
 10
 10
 10
 10
 10
 10
 10
 10
 10
 10
 10
 10
 10
 10
 10
 10

POINT_DATA        62 
VECTORS Displacements float
       0.00000000e+00       0.00000000e+00       0.00000000e+00 
       0.00000000e+00       0.00000000e+00      -5.66062265e-01 
       0.00000000e+00      -5.66062265e-01      -5.66062265e-01 
       0.00000000e+00      -5.66062265e-01       0.00000000e+00 
       1.17049588e+01       0.00000000e+00       0.00000000e+00 
       1.17049588e+01       0.00000000e+00      -5.66062265e-01 
       1.17049588e+01      -5.66062265e-01      -5.66062265e-01 
       1.17049588e+01      -5.66062265e-01       0.00000000e+00 
       0.00000000e+00      -5.66062265e-01      -2.83031132e-01 
       2.92623970e+00      -5.66062265e-01      -5.66062265e-01 
       5.85247939e+00      -5.66062265e-01      -5.66062265e-01 
       8.77871909e+00      -5.66062265e-01      -5.66062265e-01 
       1.17049588e+01      -5.66062265e-01      -2.83031132e-01 
       8.77871909e+00      -5.66062265e-01       0.00000000e+00 
       5.85247939e+00      -5.66062265e-01       0.00000000e+00 
       2.92623970e+00      -5.66062265e-01       0.00000000e+00 
       0.00000000e+00       0.00000000e+00      -2.83031132e-01 
       2.92623970e+00       0.00000000e+00      -5.66062265e-01 
       5.85247939e+00       0.00000000e+00      -5.66062265e-01 
       8.77871909e+00       0.00000000e+00      -5.66062265e-01 
       1.17049588e+01       0.00000000e+00      -2.83031132e-01 
       8.77871909e+00       0.00000000e+00       0.00000000e+00 
       5.85247939e+00       0.00000000e+00       0.00000000e+00 
       2.92623970e+00       0.00000000e+00       0.00000000e+00 
       0.00000000e+00      -2.83031132e-01       0.00000000e+00 
       0.00000000e+00      -2.83031132e-01      -5.66062265e-01 
       1.17049588e+01      -2.83031132e-01       0.00000000e+00 
       1.17049588e+01      -2.83031132e-01      -5.66062265e-01 
       7.31559924e+00      -5.66062265e-01      -2.45112151e-01 
       4.38935954e+00      -5.66062265e-01      -3.20950114e-01 
       9.78109762e+00      -5.66062265e-01      -3.58407337e-01 
       1.92386116e+00      -5.66062265e-01      -2.07654927e-01 
       1.00082895e+01      -5.66062265e-01      -1.63586918e-01 
       1.69666928e+00      -5.66062265e-01      -4.02475346e-01 
       7.31559924e+00      -3.20950114e-01       0.00000000e+00 
       4.38935954e+00      -2.54072105e-01       0.00000000e+00 
       9.78109762e+00      -2.07654927e-01       0.00000000e+00 
       1.91949451e+00      -3.60358288e-01       0.00000000e+00 
       1.73531410e+00      -1.68273983e-01       0.00000000e+00 
       1.00082895e+01      -4.02475346e-01       0.00000000e+00 
       1.17049588e+01      -3.99781474e-01      -1.66280790e-01 
       1.17049588e+01      -2.12273349e-01      -2.12273349e-01 
       1.17049588e+01      -3.64402583e-01      -3.66761176e-01 
       1.17049588e+01      -1.59205012e-01      -4.06857253e-01 
       4.38935954e+00      -3.20950114e-01      -5.66062265e-01 
       7.31559924e+00      -2.54072105e-01      -5.66062265e-01 
       1.92386116e+00      -2.07654927e-01      -5.66062265e-01 
       9.78546427e+00      -3.60358288e-01      -5.66062265e-01 
       9.96964468e+00      -1.68273983e-01      -5.66062265e-01 
       1.69666928e+00      -4.02475346e-01      -5.66062265e-01 
       0.00000000e+00      -1.66280790e-01      -3.99781474e-01 
       0.00000000e+00      -3.53788915e-01      -3.53788915e-01 
       0.00000000e+00      -2.01659682e-01      -1.99301089e-01 
       0.00000000e+00      -4.06857253e-01      -1.59205012e-01 
       7.31559924e+00       0.00000000e+00      -2.45112151e-01 
       4.38935954e+00       0.00000000e+00      -3.20950114e-01 
       9.78109762e+00       0.00000000e+00      -3.58407337e-01 
       1.92386116e+00       0.00000000e+00      -2.07654927e-01 
       1.00082895e+01       0.00000000e+00      -1.63586918e-01 
       1.69666928e+00       0.00000000e+00      -4.02475346e-01 
       2.92564649e+00      -2.79061760e-01      -2.75227960e-01 
       8.79678523e+00      -2.88498826e-01      -2.89358859e-01 

CELL_DATA       144 
SCALARS Von_Mises float 1
LOOKUP_TABLE default
       3.83073024e-01 
       3.83073024e-01 
       3.83073024e-01 
       3.83073024e-01 
       3.83073024e-01 
       3.83073024e-01 
       3.83073024e-01 
       3.83073024e-01 
       3.83073024e-01 
       3.83073024e-01 
       3.83073024e-01 
       3.83073024e-01 
       3.83073024e-01 
       3.83073024e-01 
       3.83073024e-01 
       3.83073024e-01 
       3.83073024e-01 
       3.83073024e-01 
       3.83073024e-01 
       3.83073024e-01 
       3.83073024e-01 
       3.83073024e-01 
       3.83073024e-01 
       3.83073024e-01 
       3.83073024e-01 
       3.83073024e-01 
       3.83073024e-01 
       3.83073024e-01 
       3.83073024e-01 
       3.83073024e-01 
       3.83073024e-01 
       3.83073024e-01 
       3.83073024e-01 
       3.83073024e-01 
       3.83073024e-01 
       3.83073024e-01 
       3.83073024e-01 
       3.83073024e-01 
       3.83073024e-01 
       3.83073024e-01 
       3.83073024e-01 
       3.83073024e-01 
       3.83073024e-01 
       3.83073024e-01 
       3.83073024e-01 
       3.83073024e-01 
       3.83073024e-01 
       3.83073024e-01 
       3.83073024e-01 
       3.83073024e-01 
       3.83073024e-01 
       3.83073024e-01 
       3.83073024e-01 
       3.83073024e-01 
       3.83073024e-01 
       3.83073024e-01 
       3.83073024e-01 
       3.83073024e-01 
       3.83073024e-01 
       3.83073024e-01 
       3.83073024e-01 
       3.83073024e-01 
       3.83073024e-01 
       3.83073024e-01 
       3.83073024e-01 
       3.83073024e-01 
       3.83073024e-01 
       3.83073024e-01 
       3.83073024e-01 
       3.83073024e-01 
       3.83073024e-01 
       3.83073024e-01 
       3.83073024e-01 
       3.83073024e-01 
       3.83073024e-01 
       3.83073024e-01 
       3.83073024e-01 
       3.83073024e-01 
       3.83073024e-01 
       3.83073024e-01 
       3.83073024e-01 
       3.83073024e-01 
       3.83073024e-01 
       3.83073024e-01 
       3.83073024e-01 
       3.83073024e-01 
       3.83073024e-01 
       3.83073024e-01 
       3.83073024e-01 
       3.83073024e-01 
       3.83073024e-01 
       3.83073024e-01 
       3.83073024e-01 
       3.83073024e-01 
       3.83073024e-01 
       3.83073024e-01 
       3.83073024e-01 
       3.83073024e-01 
       3.83073024e-01 
       3.83073024e-01 
       3.83073024e-01 
       3.83073024e-01 
       3.83073024e-01 
       3.83073024e-01 
       3.83073024e-01 
       3.83073024e-01 
       3.83073024e-01 
       3.83073024e-01 
       3.83073024e-01 
       3.83073024e-01 
       3.83073024e-01 
       3.83073024e-01 
       3.83073024e-01 
       3.83073024e-01 
       3.83073024e-01 
       3.83073024e-01 
       3.83073024e-01 
       3.83073024e-01 
       3.83073024e-01 
       3.83073024e-01 
       3.83073024e-01 
       3.83073024e-01 
       3.83073024e-01 
       3.83073024e-01 
       3.83073024e-01 
       3.83073024e-01 
       3.83073024e-01 
       3.83073024e-01 
       3.83073024e-01 
       3.83073024e-01 
       3.83073024e-01 
       3.83073024e-01 
       3.83073024e-01 
       3.83073024e-01 
       3.83073024e-01 
       3.83073024e-01 
       3.83073024e-01 
       3.83073024e-01 
       3.83073024e-01 
       3.83073024e-01 
       3.83073024e-01 
       3.83073024e-01 
       3.83073024e-01 
       3.83073024e-01 

SCALARS Sxx float 1
LOOKUP_TABLE default
       3.83073024e-01 
       3.83073024e-01 
       3.83073024e-01 
       3.83073024e-01 
       3.83073024e-01 
       3.83073024e-01 
       3.83073024e-01 
       3.83073024e-01 
       3.83073024e-01 
       3.83073024e-01 
       3.83073024e-01 
       3.83073024e-01 
       3.83073024e-01 
       3.83073024e-01 
       3.83073024e-01 
       3.83073024e-01 
       3.83073024e-01 
       3.83073024e-01 
       3.83073024e-01 
       3.83073024e-01 
       3.83073024e-01 
       3.83073024e-01 
       3.83073024e-01 
       3.83073024e-01 
       3.83073024e-01 
       3.83073024e-01 
       3.83073024e-01 
       3.83073024e-01 
       3.83073024e-01 
       3.83073024e-01 
       3.83073024e-01 
       3.83073024e-01 
       3.83073024e-01 
       3.83073024e-01 
       3.83073024e-01 
       3.83073024e-01 
       3.83073024e-01 
       3.83073024e-01 
       3.83073024e-01 
       3.83073024e-01 
       3.83073024e-01 
       3.83073024e-01 
       3.83073024e-01 
       3.83073024e-01 
       3.83073024e-01 
       3.83073024e-01 
       3.83073024e-01 
       3.83073024e-01 
       3.83073024e-01 
       3.83073024e-01 
       3.83073024e-01 
       3.83073024e-01 
       3.83073024e-01 
       3.83073024e-01 
       3.83073024e-01 
       3.83073024e-01 
       3.83073024e-01 
       3.83073024e-01 
       3.83073024e-01 
       3.83073024e-01 
       3.83073024e-01 
       3.83073024e-01 
       3.83073024e-01 
       3.83073024e-01 
       3.83073024e-01 
       3.83073024e-01 
       3.83073024e-01 
       3.83073024e-01 
       3.83073024e-01 
       3.83073024e-01 
       3.83073024e-01 
       3.83073024e-01 
       3.83073024e-01 
       3.83073024e-01 
       3.83073024e-01 
       3.83073024e-01 
       3.83073024e-01 
       3.83073024e-01 
       3.83073024e-01 
       3.83073024e-01 
       3.83073024e-01 
       3.83073024e-01 
       3.83073024e-01 
       3.83073024e-01 
       3.83073024e-01 
       3.83073024e-01 
       3.83073024e-01 
       3.83073024e-01 
       3.83073024e-01 
       3.83073024e-01 
       3.83073024e-01 
       3.83073024e-01 
       3.83073024e-01 
       3.83073024e-01 
       3.83073024e-01 
       3.83073024e-01 
       3.83073024e-01 
       3.83073024e-01 
       3.83073024e-01 
       3.83073024e-01 
       3.83073024e-01 
       3.83073024e-01 
       3.83073024e-01 
       3.83073024e-01 
       3.83073024e-01 
       3.83073024e-01 
       3.83073024e-01 
       3.83073024e-01 
       3.83073024e-01 
       3.83073024e-01 
       3.83073024e-01 
       3.83073024e-01 
       3.83073024e-01 
       3.83073024e-01 
       3.83073024e-01 
       3.83073024e-01 
       3.83073024e-01 
       3.83073024e-01 
       3.83073024e-01 
       3.83073024e-01 
       3.83073024e-01 
       3.83073024e-01 
       3.83073024e-01 
       3.83073024e-01 
       3.83073024e-01 
       3.83073024e-01 
       3.83073024e-01 
       3.83073024e-01 
       3.83073024e-01 
       3.83073024e-01 
       3.83073024e-01 
       3.83073024e-01 
       3.83073024e-01 
       3.83073024e-01 
       3.83073024e-01 
       3.83073024e-01 
       3.83073024e-01 
       3.83073024e-01 
       3.83073024e-01 
       3.83073024e-01 
       3.83073024e-01 
       3.83073024e-01 
       3.83073024e-01 
       3.83073024e-01 

