# vtk DataFile Version 2.0
./output/uniaxialExtension_NHC/uniaxialExtension_NHC_0004.vtk
ASCII
DATASET UNSTRUCTURED_GRID

POINTS 62 float
       0.000000e+00       0.000000e+00       0.000000e+00 
       0.000000e+00       0.000000e+00       5.610435e-01 
       0.000000e+00       5.610435e-01       5.610435e-01 
       0.000000e+00       5.610435e-01       0.000000e+00 
       7.958211e+00       0.000000e+00       0.000000e+00 
       7.958211e+00       0.000000e+00       5.610435e-01 
       7.958211e+00       5.610435e-01       5.610435e-01 
       7.958211e+00       5.610435e-01       0.000000e+00 
       0.000000e+00       5.610435e-01       2.805218e-01 
       1.989553e+00       5.610435e-01       5.610435e-01 
       3.979106e+00       5.610435e-01       5.610435e-01 
       5.968659e+00       5.610435e-01       5.610435e-01 
       7.958211e+00       5.610435e-01       2.805218e-01 
       5.968659e+00       5.610435e-01       0.000000e+00 
       3.979106e+00       5.610435e-01       0.000000e+00 
       1.989553e+00       5.610435e-01       0.000000e+00 
       0.000000e+00       0.000000e+00       2.805218e-01 
       1.989553e+00       0.000000e+00       5.610435e-01 
       3.979106e+00       0.000000e+00       5.610435e-01 
       5.968659e+00       0.000000e+00       5.610435e-01 
       7.958211e+00       0.000000e+00       2.805218e-01 
       5.968659e+00       0.000000e+00       0.000000e+00 
       3.979106e+00       0.000000e+00       0.000000e+00 
       1.989553e+00       0.000000e+00       0.000000e+00 
       0.000000e+00       2.805218e-01       0.000000e+00 
       0.000000e+00       2.805218e-01       5.610435e-01 
       7.958211e+00       2.805218e-01       0.000000e+00 
       7.958211e+00       2.805218e-01       5.610435e-01 
       4.973882e+00       5.610435e-01       2.429390e-01 
       2.984329e+00       5.610435e-01       3.181046e-01 
       6.650177e+00       5.610435e-01       3.552297e-01 
       1.308035e+00       5.610435e-01       2.058139e-01 
       6.804644e+00       5.610435e-01       1.621366e-01 
       1.153567e+00       5.610435e-01       3.989070e-01 
       4.973882e+00       3.181046e-01       0.000000e+00 
       2.984329e+00       2.518195e-01       0.000000e+00 
       6.650177e+00       2.058139e-01       0.000000e+00 
       1.305066e+00       3.571633e-01       0.000000e+00 
       1.179842e+00       1.667821e-01       0.000000e+00 
       6.804644e+00       3.989070e-01       0.000000e+00 
       7.958211e+00       3.962370e-01       1.648065e-01 
       7.958211e+00       2.103913e-01       2.103913e-01 
       7.958211e+00       3.611718e-01       3.635095e-01 
       7.958211e+00       1.577935e-01       4.032500e-01 
       2.984329e+00       3.181046e-01       5.610435e-01 
       4.973882e+00       2.518195e-01       5.610435e-01 
       1.308035e+00       2.058139e-01       5.610435e-01 
       6.653145e+00       3.571633e-01       5.610435e-01 
       6.778370e+00       1.667821e-01       5.610435e-01 
       1.153567e+00       3.989070e-01       5.610435e-01 
       0.000000e+00       1.648065e-01       3.962370e-01 
       0.000000e+00       3.506522e-01       3.506522e-01 
       0.000000e+00       1.998718e-01       1.975341e-01 
       0.000000e+00       4.032500e-01       1.577935e-01 
       4.973882e+00       0.000000e+00       2.429390e-01 
       2.984329e+00       0.000000e+00       3.181046e-01 
       6.650177e+00       0.000000e+00       3.552297e-01 
       1.308035e+00       0.000000e+00       2.058139e-01 
       6.804644e+00       0.000000e+00       1.621366e-01 
       1.153567e+00       0.000000e+00       3.989070e-01 
       1.989150e+00       2.765876e-01       2.727878e-01 
       5.980942e+00       2.859410e-01       2.867934e-01 

CELLS 144 720
4 44 60 29 61 
4 34 35 54 61 
4 45 54 55 61 
4 44 29 45 61 
4 29 28 45 61 
4 29 10 45 28 
4 28 35 29 14 
4 29 10 44 45 
4 14 28 35 34 
4 9 49 33 60 
4 13 39 32 61 
4 54 58 36 61 
4 45 18 55 54 
4 22 35 55 54 
4 43 48 42 61 
4 40 39 36 61 
4 18 55 44 45 
4 22 34 35 54 
4 45 28 11 61 
4 44 49 9 60 
4 9 33 29 60 
4 56 19 48 61 
4 34 39 13 61 
4 13 32 28 61 
4 56 54 19 61 
4 34 54 36 61 
4 43 56 48 61 
4 40 30 32 61 
4 35 29 15 60 
4 46 17 59 60 
4 39 40 32 61 
4 40 42 30 61 
4 40 36 41 61 
4 59 57 50 60 
4 11 28 30 61 
4 15 29 31 60 
4 11 47 45 61 
4 15 31 37 60 
4 35 15 29 14 
4 11 45 10 28 
4 54 21 36 58 
4 59 50 46 60 
4 11 30 47 61 
4 53 37 31 60 
4 52 50 57 60 
4 15 37 35 60 
4 43 41 56 61 
4 57 55 23 60 
4 52 37 53 60 
4 23 38 57 60 
4 47 42 48 61 
4 21 36 34 54 
4 45 48 19 61 
4 53 31 51 60 
4 19 54 45 61 
4 46 50 51 60 
4 36 58 41 61 
4 13 28 34 61 
4 44 9 29 60 
4 51 33 49 60 
4 55 59 17 60 
4 56 41 58 61 
4 23 55 35 60 
4 47 30 42 61 
4 51 49 46 60 
4 35 38 23 60 
4 31 33 51 60 
4 38 37 52 60 
4 38 52 57 60 
4 31 3 37 53 
4 42 41 43 61 
4 30 6 47 42 
4 57 16 59 50 
4 40 39 26 36 
4 40 30 12 32 
4 16 57 52 50 
4 42 30 12 40 
4 18 45 19 54 
4 23 35 55 22 
4 52 53 51 60 
4 54 56 58 61 
4 34 36 39 61 
4 40 41 42 61 
4 37 24 52 53 
4 44 46 49 60 
4 36 26 40 41 
4 44 55 18 17 
4 21 34 22 54 
4 51 50 52 60 
4 31 29 33 60 
4 48 45 47 61 
4 57 0 52 38 
4 32 30 28 61 
4 53 31 8 51 
4 43 20 56 41 
4 36 41 58 4 
4 43 56 5 48 
4 46 25 51 50 
4 59 55 57 60 
4 38 35 37 60 
4 59 1 46 50 
4 38 24 52 37 
4 0 16 57 52 
4 30 12 6 42 
4 41 36 26 4 
4 27 47 6 42 
4 49 25 51 46 
4 51 31 8 33 
4 41 20 56 58 
4 31 8 3 53 
4 56 20 43 5 
4 24 37 3 53 
4 25 46 1 50 
4 51 33 2 49 
4 24 52 0 38 
4 37 15 3 31 
4 47 11 6 30 
4 58 41 20 4 
4 33 8 51 2 
4 25 51 2 49 
4 10 9 29 44 
4 14 13 28 34 
4 48 5 43 27 
4 32 12 40 7 
4 39 7 40 26 
4 16 1 59 50 
4 40 32 7 39 
4 5 56 19 48 
4 0 57 23 38 
4 46 1 59 17 
4 13 7 32 39 
4 58 21 36 4 
4 9 2 33 49 
4 61 44 55 45 
4 61 55 44 60 
4 61 35 28 34 
4 61 55 35 54 
4 61 35 55 60 
4 61 29 35 60 
4 61 35 29 28 
4 42 48 27 47 
4 42 27 48 43 
4 17 60 44 55 
4 44 60 17 46 

CELL_TYPES 144
 10
 10
 10
 10
 10
 10
 10
 10
 10
 10
 10
 10
 10
 10
 10
 10
 10
 10
 10
 10
 10
 10
 10
 10
 10
 10
 10
 10
 10
 10
 10
 10
 10
 10
 10
 10
 10
 10
 10
 10
 10
 10
 10
 10
 10
 10
 10
 10
 10
 10
 10
 10
 10
 10
 10
 10
 10
 10
 10
 10
 10
 10
 10
 10
 10
 10
 10
 10
 10
 10
 10
 10
 10
 10
 10
 10
 10
 10
 10
 10
 10
 10
 10
 10
 10
 10
 10
 10
 10
 10
 10
 10
 10
 10
 10
 10
 10
 10
 10
 10
 10
 10
 10
 10
 10
 10
 10
 10
 10
 10
 10
 10
 10
 10
 10
 10
 10
 10
 10
 10
 10
 10
 10
 10
 10
 10
 10
 10
 10
 10
 10
 10
 10
 10
 10
 10
 10
 10
 10
 10
 10
 10
 10
 10

POINT_DATA        62 
VECTORS Displacements float
       0.00000000e+00       0.00000000e+00       0.00000000e+00 
       0.00000000e+00       0.00000000e+00      -4.38956455e-01 
       0.00000000e+00      -4.38956455e-01      -4.38956455e-01 
       0.00000000e+00      -4.38956455e-01       0.00000000e+00 
       5.95821136e+00       0.00000000e+00       0.00000000e+00 
       5.95821136e+00       0.00000000e+00      -4.38956455e-01 
       5.95821136e+00      -4.38956455e-01      -4.38956455e-01 
       5.95821136e+00      -4.38956455e-01       0.00000000e+00 
       0.00000000e+00      -4.38956455e-01      -2.19478228e-01 
       1.48955284e+00      -4.38956455e-01      -4.38956455e-01 
       2.97910568e+00      -4.38956455e-01      -4.38956455e-01 
       4.46865852e+00      -4.38956455e-01      -4.38956455e-01 
       5.95821136e+00      -4.38956455e-01      -2.19478228e-01 
       4.46865852e+00      -4.38956455e-01       0.00000000e+00 
       2.97910568e+00      -4.38956455e-01       0.00000000e+00 
       1.48955284e+00      -4.38956455e-01       0.00000000e+00 
       0.00000000e+00       0.00000000e+00      -2.19478228e-01 
       1.48955284e+00       0.00000000e+00      -4.38956455e-01 
       2.97910568e+00       0.00000000e+00      -4.38956455e-01 
       4.46865852e+00       0.00000000e+00      -4.38956455e-01 
       5.95821136e+00       0.00000000e+00      -2.19478228e-01 
       4.46865852e+00       0.00000000e+00       0.00000000e+00 
       2.97910568e+00       0.00000000e+00       0.00000000e+00 
       1.48955284e+00       0.00000000e+00       0.00000000e+00 
       0.00000000e+00      -2.19478228e-01       0.00000000e+00 
       0.00000000e+00      -2.19478228e-01      -4.38956455e-01 
       5.95821136e+00      -2.19478228e-01       0.00000000e+00 
       5.95821136e+00      -2.19478228e-01      -4.38956455e-01 
       3.72388210e+00      -4.38956455e-01      -1.90073721e-01 
       2.23432926e+00      -4.38956455e-01      -2.48882734e-01 
       4.97890236e+00      -4.38956455e-01      -2.77929168e-01 
       9.79308996e-01      -4.38956455e-01      -1.61027287e-01 
       5.09455055e+00      -4.38956455e-01      -1.26854479e-01 
       8.63660810e-01      -4.38956455e-01      -3.12101976e-01 
       3.72388210e+00      -2.48882734e-01       0.00000000e+00 
       2.23432926e+00      -1.97021772e-01       0.00000000e+00 
       4.97890236e+00      -1.61027287e-01       0.00000000e+00 
       9.77086225e-01      -2.79442045e-01       0.00000000e+00 
       8.83332304e-01      -1.30489092e-01       0.00000000e+00 
       5.09455055e+00      -3.12101976e-01       0.00000000e+00 
       5.95821136e+00      -3.10012996e-01      -1.28943459e-01 
       5.95821136e+00      -1.64608671e-01      -1.64608671e-01 
       5.95821136e+00      -2.82578218e-01      -2.84407203e-01 
       5.95821136e+00      -1.23456503e-01      -3.15499952e-01 
       2.23432926e+00      -2.48882734e-01      -4.38956455e-01 
       3.72388210e+00      -1.97021772e-01      -4.38956455e-01 
       9.79308996e-01      -1.61027287e-01      -4.38956455e-01 
       4.98112513e+00      -2.79442045e-01      -4.38956455e-01 
       5.07487906e+00      -1.30489092e-01      -4.38956455e-01 
       8.63660810e-01      -3.12101976e-01      -4.38956455e-01 
       0.00000000e+00      -1.28943459e-01      -3.10012996e-01 
       0.00000000e+00      -2.74347784e-01      -2.74347784e-01 
       0.00000000e+00      -1.56378237e-01      -1.54549252e-01 
       0.00000000e+00      -3.15499952e-01      -1.23456503e-01 
       3.72388210e+00       0.00000000e+00      -1.90073721e-01 
       2.23432926e+00       0.00000000e+00      -2.48882734e-01 
       4.97890236e+00       0.00000000e+00      -2.77929168e-01 
       9.79308996e-01       0.00000000e+00      -1.61027287e-01 
       5.09455055e+00       0.00000000e+00      -1.26854479e-01 
       8.63660810e-01       0.00000000e+00      -3.12101976e-01 
       1.48925088e+00      -2.16400153e-01      -2.13427210e-01 
       4.47785479e+00      -2.23718184e-01      -2.24385102e-01 

CELL_DATA       144 
SCALARS Von_Mises float 1
LOOKUP_TABLE default
       3.76969128e-01 
       3.76969128e-01 
       3.76969128e-01 
       3.76969128e-01 
       3.76969128e-01 
       3.76969128e-01 
       3.76969128e-01 
       3.76969128e-01 
       3.76969128e-01 
       3.76969128e-01 
       3.76969128e-01 
       3.76969128e-01 
       3.76969128e-01 
       3.76969128e-01 
       3.76969128e-01 
       3.76969128e-01 
       3.76969128e-01 
       3.76969128e-01 
       3.76969128e-01 
       3.76969128e-01 
       3.76969128e-01 
       3.76969128e-01 
       3.76969128e-01 
       3.76969128e-01 
       3.76969128e-01 
       3.76969128e-01 
       3.76969128e-01 
       3.76969128e-01 
       3.76969128e-01 
       3.76969128e-01 
       3.76969128e-01 
       3.76969128e-01 
       3.76969128e-01 
       3.76969128e-01 
       3.76969128e-01 
       3.76969128e-01 
       3.76969128e-01 
       3.76969128e-01 
       3.76969128e-01 
       3.76969128e-01 
       3.76969128e-01 
       3.76969128e-01 
       3.76969128e-01 
       3.76969128e-01 
       3.76969128e-01 
       3.76969128e-01 
       3.76969128e-01 
       3.76969128e-01 
       3.76969128e-01 
       3.76969128e-01 
       3.76969128e-01 
       3.76969128e-01 
       3.76969128e-01 
       3.76969128e-01 
       3.76969128e-01 
       3.76969128e-01 
       3.76969128e-01 
       3.76969128e-01 
       3.76969128e-01 
       3.76969128e-01 
       3.76969128e-01 
       3.76969128e-01 
       3.76969128e-01 
       3.76969128e-01 
       3.76969128e-01 
       3.76969128e-01 
       3.76969128e-01 
       3.76969128e-01 
       3.76969128e-01 
       3.76969128e-01 
       3.76969128e-01 
       3.76969128e-01 
       3.76969128e-01 
       3.76969128e-01 
       3.76969128e-01 
       3.76969128e-01 
       3.76969128e-01 
       3.76969128e-01 
       3.76969128e-01 
       3.76969128e-01 
       3.76969128e-01 
       3.76969128e-01 
       3.76969128e-01 
       3.76969128e-01 
       3.76969128e-01 
       3.76969128e-01 
       3.76969128e-01 
       3.76969128e-01 
       3.76969128e-01 
       3.76969128e-01 
       3.76969128e-01 
       3.76969128e-01 
       3.76969128e-01 
       3.76969128e-01 
       3.76969128e-01 
       3.76969128e-01 
       3.76969128e-01 
       3.76969128e-01 
       3.76969128e-01 
       3.76969128e-01 
       3.76969128e-01 
       3.76969128e-01 
       3.76969128e-01 
       3.76969128e-01 
       3.76969128e-01 
       3.76969128e-01 
       3.76969128e-01 
       3.76969128e-01 
       3.76969128e-01 
       3.76969128e-01 
       3.76969128e-01 
       3.76969128e-01 
       3.76969128e-01 
       3.76969128e-01 
       3.76969128e-01 
       3.76969128e-01 
       3.76969128e-01 
       3.76969128e-01 
       3.76969128e-01 
       3.76969128e-01 
       3.76969128e-01 
       3.76969128e-01 
       3.76969128e-01 
       3.76969128e-01 
       3.76969128e-01 
       3.76969128e-01 
       3.76969128e-01 
       3.76969128e-01 
       3.76969128e-01 
       3.76969128e-01 
       3.76969128e-01 
       3.76969128e-01 
       3.76969128e-01 
       3.76969128e-01 
       3.76969128e-01 
       3.76969128e-01 
       3.76969128e-01 
       3.76969128e-01 
       3.76969128e-01 
       3.76969128e-01 
       3.76969128e-01 
       3.76969128e-01 
       3.76969128e-01 
       3.76969128e-01 

SCALARS Sxx float 1
LOOKUP_TABLE default
       3.76969128e-01 
       3.76969128e-01 
       3.76969128e-01 
       3.76969128e-01 
       3.76969128e-01 
       3.76969128e-01 
       3.76969128e-01 
       3.76969128e-01 
       3.76969128e-01 
       3.76969128e-01 
       3.76969128e-01 
       3.76969128e-01 
       3.76969128e-01 
       3.76969128e-01 
       3.76969128e-01 
       3.76969128e-01 
       3.76969128e-01 
       3.76969128e-01 
       3.76969128e-01 
       3.76969128e-01 
       3.76969128e-01 
       3.76969128e-01 
       3.76969128e-01 
       3.76969128e-01 
       3.76969128e-01 
       3.76969128e-01 
       3.76969128e-01 
       3.76969128e-01 
       3.76969128e-01 
       3.76969128e-01 
       3.76969128e-01 
       3.76969128e-01 
       3.76969128e-01 
       3.76969128e-01 
       3.76969128e-01 
       3.76969128e-01 
       3.76969128e-01 
       3.76969128e-01 
       3.76969128e-01 
       3.76969128e-01 
       3.76969128e-01 
       3.76969128e-01 
       3.76969128e-01 
       3.76969128e-01 
       3.76969128e-01 
       3.76969128e-01 
       3.76969128e-01 
       3.76969128e-01 
       3.76969128e-01 
       3.76969128e-01 
       3.76969128e-01 
       3.76969128e-01 
       3.76969128e-01 
       3.76969128e-01 
       3.76969128e-01 
       3.76969128e-01 
       3.76969128e-01 
       3.76969128e-01 
       3.76969128e-01 
       3.76969128e-01 
       3.76969128e-01 
       3.76969128e-01 
       3.76969128e-01 
       3.76969128e-01 
       3.76969128e-01 
       3.76969128e-01 
       3.76969128e-01 
       3.76969128e-01 
       3.76969128e-01 
       3.76969128e-01 
       3.76969128e-01 
       3.76969128e-01 
       3.76969128e-01 
       3.76969128e-01 
       3.76969128e-01 
       3.76969128e-01 
       3.76969128e-01 
       3.76969128e-01 
       3.76969128e-01 
       3.76969128e-01 
       3.76969128e-01 
       3.76969128e-01 
       3.76969128e-01 
       3.76969128e-01 
       3.76969128e-01 
       3.76969128e-01 
       3.76969128e-01 
       3.76969128e-01 
       3.76969128e-01 
       3.76969128e-01 
       3.76969128e-01 
       3.76969128e-01 
       3.76969128e-01 
       3.76969128e-01 
       3.76969128e-01 
       3.76969128e-01 
       3.76969128e-01 
       3.76969128e-01 
       3.76969128e-01 
       3.76969128e-01 
       3.76969128e-01 
       3.76969128e-01 
       3.76969128e-01 
       3.76969128e-01 
       3.76969128e-01 
       3.76969128e-01 
       3.76969128e-01 
       3.76969128e-01 
       3.76969128e-01 
       3.76969128e-01 
       3.76969128e-01 
       3.76969128e-01 
       3.76969128e-01 
       3.76969128e-01 
       3.76969128e-01 
       3.76969128e-01 
       3.76969128e-01 
       3.76969128e-01 
       3.76969128e-01 
       3.76969128e-01 
       3.76969128e-01 
       3.76969128e-01 
       3.76969128e-01 
       3.76969128e-01 
       3.76969128e-01 
       3.76969128e-01 
       3.76969128e-01 
       3.76969128e-01 
       3.76969128e-01 
       3.76969128e-01 
       3.76969128e-01 
       3.76969128e-01 
       3.76969128e-01 
       3.76969128e-01 
       3.76969128e-01 
       3.76969128e-01 
       3.76969128e-01 
       3.76969128e-01 
       3.76969128e-01 
       3.76969128e-01 
       3.76969128e-01 
       3.76969128e-01 
       3.76969128e-01 
       3.76969128e-01 

